50
100
80	1
79	3
78	2
77	1
76	2
75	4
74	2
73	2
71	2
70	1
69	1
68	1
67	2
66	3
65	1
64	1
62	1
61	1
60	2
59	1
58	2
57	2
56	5
55	4
54	1
53	2
52	2
50	1
47	1
45	1
44	1
43	2
42	2
41	2
40	1
38	5
37	4
36	1
35	1
34	2
33	3
32	2
31	1
30	3
29	2
26	4
25	2
22	2
21	3
20	2
